tsp_instances/TSP20/instance89.tsp
NODE_COORD_SECTION
0 57 110
1 6 111
2 11 103
3 193 75
4 195 200
5 20 117
6 19 91
7 79 30
8 187 130
9 19 33
10 105 104
11 29 51
12 37 53
13 102 122
14 156 174
15 10 52
16 139 152
17 9 107
18 160 191
19 128 93
