tsp_instances/TSP20/instance89.opt.tour
TOUR_SECTION
1
6
2
18
3
7
16
10
12
13
8
20
4
9
5
19
15
17
14
11
-1